3878,12505,22895,8852,17843,12508,11081,18810,631,24505,1835,527,9468,2333,35,22068,18260,4064,22355,12032,17547,16549,16405,6757,22708,10789,18157,4438,6056,10863,8968,15547,23686,13913,5370,12704,24992,12179,10061,19525,14053,23017,276,16924,21134,21078,24044,6233,4175,3878